    1000
     143
     798         1
     793         1
     790         1
     787         2
     756         1
     749         1
     743         1
     742         1
     737         1
     734         1
     731         1
     726         1
     725         1
     723         1
     717         1
     704         1
     703         1
     696         1
     693         1
     685         1
     682         1
     681         1
     675         1
     673         1
     671         1
     667         1
     647         1
     640         1
     630         1
     629         1
     628         1
     622         1
     620         1
     614         1
     606         1
     605         1
     604         1
     591         1
     590         1
     587         1
     580         1
     579         1
     573         2
     561         1
     558         1
     556         1
     551         1
     546         1
     540         1
     522         1
     504         1
     501         1
     497         1
     495         1
     493         1
     487         1
     480         1
     479         1
     476         1
     474         1
     473         1
     472         2
     466         1
     462         1
     457         1
     436         1
     434         1
     431         1
     428         1
     423         1
     416         1
     405         1
     366         1
     365         1
     362         1
     356         1
     355         1
     351         2
     349         1
     346         1
     339         1
     314         1
     310         1
     303         1
     292         1
     288         2
     282         1
     281         1
     280         1
     279         1
     271         1
     268         1
     256         1
     247         1
     243         1
     239         1
     222         1
     217         1
     212         1
     208         1
     206         1
     203         1
     200         1
     195         1
     194         1
     187         1
     185         1
     178         1
     177         3
     171         1
     165         1
     155         1
     153         1
     152         1
     141         1
     137         1
     135         1
     133         1
     131         1
     130         1
     124         1
     122         1
     117         1
     109         1
      93         1
      76         1
      75         1
      72         1
      67         1
      60         1
      57         1
      53         2
      49         1
      44         1
      41         1
      40         1
      39         1
      27         1
      25         1
      21         1
      19         1
      18         1
      17         1
